(set-info :smt-lib-version 2.6)
(set-logic QF_S)
(set-info :source |
Generated by: Hung-En Wang, Tzung-Lin Tsai, Chun-Han Lin, Fang Yu, and Jie-Hong R. Jiang
Generated on: 2019-02-28
Generator: Stranger
Application: Security analysis of string manipulating web applications
Target solver: CVC4, Norn, Z3-str2
Publication:
Hung-En Wang, Tzung-Lin Tsai, Chun-Han Lin, Fang Yu, Jie-Hong R. Jiang:
String Analysis via Automata Manipulation with Logic Circuit Representation. CAV (1) 2016: 241-260.
|)
(set-info :license "https://creativecommons.org/licenses/by/4.0/")
(set-info :category "industrial")
(set-info :status unknown)

(declare-fun sigmaStar_0 () String)
(declare-fun sigmaStar_1 () String)
(declare-fun sigmaStar_2 () String)
(declare-fun sigmaStar_3 () String)
(declare-fun literal_4 () String)
(declare-fun x_5 () String)
(declare-fun literal_6 () String)
(declare-fun x_8 () String)
(declare-fun literal_7 () String)
(declare-fun x_9 () String)
(declare-fun x_10 () String)
(declare-fun x_11 () String)
(declare-fun literal_12 () String)
(declare-fun x_13 () String)
(declare-fun x_14 () String)
(declare-fun literal_15 () String)
(declare-fun x_16 () String)
(assert (= literal_4 "\u{3c}\u{62}\u{72}\u{3e}\u{3c}\u{62}\u{72}\u{3e}\u{0d}\u{0a}\u{3c}\u{61}\u{20}\u{68}\u{72}\u{65}\u{66}\u{3d}\u{27}\u{76}\u{69}\u{65}\u{77}\u{66}\u{6f}\u{72}\u{75}\u{6d}\u{2e}\u{70}\u{68}\u{70}\u{3f}\u{66}\u{6f}\u{72}\u{75}\u{6d}\u{5f}\u{69}\u{64}\u{3d}"))
(assert (= x_5 (str.++ literal_4 sigmaStar_0)))
(assert (= literal_6 "\u{27}\u{3e}"))
(assert (= x_8 (str.++ x_5 literal_6)))
(assert (= literal_7 "\u{3c}\u{64}\u{69}\u{76}\u{20}\u{61}\u{6c}\u{69}\u{67}\u{6e}\u{3d}\u{27}\u{63}\u{65}\u{6e}\u{74}\u{65}\u{72}\u{27}\u{3e}\u{3c}\u{62}\u{72}\u{3e}\u{0d}\u{0a}"))
(assert (= x_9 (str.++ literal_7 sigmaStar_3)))
(assert (= x_10 (str.++ x_9 x_8)))
(assert (= x_11 (str.++ x_10 sigmaStar_2)))
(assert (= literal_12 "\u{3c}\u{2f}\u{61}\u{3e}\u{3c}\u{62}\u{72}\u{3e}\u{3c}\u{62}\u{72}\u{3e}\u{0d}\u{0a}\u{3c}\u{61}\u{20}\u{68}\u{72}\u{65}\u{66}\u{3d}\u{27}\u{69}\u{6e}\u{64}\u{65}\u{78}\u{2e}\u{70}\u{68}\u{70}\u{27}\u{3e}"))
(assert (= x_13 (str.++ x_11 literal_12)))
(assert (= x_14 (str.++ x_13 sigmaStar_1)))
(assert (= literal_15 "\u{3c}\u{2f}\u{61}\u{3e}\u{3c}\u{62}\u{72}\u{3e}\u{3c}\u{62}\u{72}\u{3e}\u{3c}\u{2f}\u{64}\u{69}\u{76}\u{3e}\u{5c}\u{6e}"))
(assert (= x_16 (str.++ x_14 literal_15)))
(assert (str.in_re x_16 (re.++ (re.* re.allchar) (re.++ (str.to_re "\u{5c}\u{3c}\u{53}\u{43}\u{52}\u{49}\u{50}\u{54}") (re.* re.allchar)))))
(check-sat)
(exit)
